(set-logic QF_UF)
(declare-fun A0 () Bool)
(declare-fun A1 () Bool)
(declare-fun A2 () Bool)
(declare-fun A3 () Bool)
(declare-fun A4 () Bool)
(declare-fun A5 () Bool)
(declare-fun A6 () Bool)
(declare-fun A7 () Bool)
(declare-fun A8 () Bool)
(declare-fun A9 () Bool)
(declare-fun A10 () Bool)
(declare-fun A11 () Bool)
(declare-fun A12 () Bool)
(declare-fun A13 () Bool)
(declare-fun A14 () Bool)
(declare-fun A15 () Bool)
(declare-fun A16 () Bool)
(declare-fun A17 () Bool)
(declare-fun A20 () Bool)
(declare-fun A21 () Bool)
(declare-fun A22 () Bool)
(declare-fun A23 () Bool)
(declare-fun A24 () Bool)
(declare-fun A25 () Bool)
(declare-fun A26 () Bool)
(declare-fun A29 () Bool)
(assert (let ((.def_0 (and A25 A2))) (let ((.def_1 (not .def_0))) (let ((.def_2 (not A23))) (let ((.def_3 (not A9))) (let ((.def_4 (or .def_3 .def_2))) (let ((.def_5 (not .def_4))) (let ((.def_6 (or .def_5 .def_1))) (let ((.def_7 (not .def_6))) (let ((.def_8 (not A12))) (let ((.def_9 (or .def_8 A16))) (let ((.def_10 (and A29 A26))) (let ((.def_11 (not .def_10))) (let ((.def_12 (and .def_11 .def_9))) (let ((.def_13 (or .def_12 .def_7))) (let ((.def_14 (not .def_13))) (let ((.def_15 (or A13 A29))) (let ((.def_16 (not A24))) (let ((.def_17 (or A11 .def_16))) (let ((.def_18 (not .def_17))) (let ((.def_19 (and .def_18 .def_15))) (let ((.def_20 (not A10))) (let ((.def_21 (or .def_20 A26))) (let ((.def_22 (not A26))) (let ((.def_23 (not A25))) (let ((.def_24 (and .def_23 .def_22))) (let ((.def_25 (not .def_24))) (let ((.def_26 (or .def_25 .def_21))) (let ((.def_27 (not .def_26))) (let ((.def_28 (= .def_27 .def_19))) (let ((.def_29 (not .def_28))) (let ((.def_30 (= .def_29 .def_14))) (let ((.def_31 (not .def_30))) (let ((.def_32 (not A22))) (let ((.def_33 (and A23 .def_32))) (let ((.def_34 (not A6))) (let ((.def_35 (or A17 .def_34))) (let ((.def_36 (= .def_35 .def_33))) (let ((.def_37 (not .def_36))) (let ((.def_38 (not A21))) (let ((.def_39 (or .def_3 .def_38))) (let ((.def_40 (or A6 A6))) (let ((.def_41 (or .def_40 .def_39))) (let ((.def_42 (and .def_41 .def_37))) (let ((.def_43 (not .def_42))) (let ((.def_44 (not A11))) (let ((.def_45 (not A13))) (let ((.def_46 (or .def_45 .def_44))) (let ((.def_47 (not .def_46))) (let ((.def_48 (and A1 A3))) (let ((.def_49 (not .def_48))) (let ((.def_50 (and .def_49 .def_47))) (let ((.def_51 (not A7))) (let ((.def_52 (or A29 .def_51))) (let ((.def_53 (not A0))) (let ((.def_54 (= A26 .def_53))) (let ((.def_55 (and .def_54 .def_52))) (let ((.def_56 (not .def_55))) (let ((.def_57 (and .def_56 .def_50))) (let ((.def_58 (not .def_57))) (let ((.def_59 (or .def_58 .def_43))) (let ((.def_60 (not .def_59))) (let ((.def_61 (or .def_60 .def_31))) (let ((.def_62 (not A4))) (let ((.def_63 (and A6 .def_62))) (let ((.def_64 (and A8 A10))) (let ((.def_65 (not .def_64))) (let ((.def_66 (or .def_65 .def_63))) (let ((.def_67 (not .def_66))) (let ((.def_68 (or .def_8 A13))) (let ((.def_69 (not .def_68))) (let ((.def_70 (= A21 A15))) (let ((.def_71 (not .def_70))) (let ((.def_72 (and .def_71 .def_69))) (let ((.def_73 (or .def_72 .def_67))) (let ((.def_74 (not A2))) (let ((.def_75 (= A16 .def_74))) (let ((.def_76 (and A10 A10))) (let ((.def_77 (and .def_76 .def_75))) (let ((.def_78 (= .def_16 A11))) (let ((.def_79 (not .def_78))) (let ((.def_80 (and .def_32 A21))) (let ((.def_81 (= .def_80 .def_79))) (let ((.def_82 (not .def_81))) (let ((.def_83 (or .def_82 .def_77))) (let ((.def_84 (or .def_83 .def_73))) (let ((.def_85 (not A14))) (let ((.def_86 (or A5 .def_85))) (let ((.def_87 (not .def_86))) (let ((.def_88 (and .def_34 .def_51))) (let ((.def_89 (or .def_88 .def_87))) (let ((.def_90 (not .def_89))) (let ((.def_91 (or .def_8 A0))) (let ((.def_92 (not .def_91))) (let ((.def_93 (not A8))) (let ((.def_94 (or .def_53 .def_93))) (let ((.def_95 (or .def_94 .def_92))) (let ((.def_96 (or .def_95 .def_90))) (let ((.def_97 (not .def_96))) (let ((.def_98 (not A17))) (let ((.def_99 (or .def_98 .def_23))) (let ((.def_100 (not .def_99))) (let ((.def_101 (or .def_51 A12))) (let ((.def_102 (not .def_101))) (let ((.def_103 (or .def_102 .def_100))) (let ((.def_104 (not .def_103))) (let ((.def_105 (or .def_93 .def_20))) (let ((.def_106 (or .def_53 A20))) (let ((.def_107 (and .def_106 .def_105))) (let ((.def_108 (and .def_107 .def_104))) (let ((.def_109 (or .def_108 .def_97))) (let ((.def_110 (not .def_109))) (let ((.def_111 (and .def_110 .def_84))) (let ((.def_112 (and .def_111 .def_61))) .def_112))))))))))))))))))))))))))))))))))))))))))))))))))))))))))))))))))))))))))))))))))))))))))))))))))))))))))))))))))
(check-sat)
